
Gurobi 9.5.1 (mac64[x86]) logging started Wed Jun  8 08:51:41 2022

Set parameter LogFile to value "/Users/keyvanmajd/Documents/GitHub/NNRepLayer_v2/demos/examples/tc7_walking_example/repair_inp_out_constraint/repair_net/logs/opt_log_6_8_2022_8_51_18.log"
Gurobi Optimizer version 9.5.1 build v9.5.1rc2 (mac64[x86])
Thread count: 4 physical cores, 8 logical processors, using up to 8 threads
Optimize a model with 2112 rows, 716 columns and 5310 nonzeros
Model fingerprint: 0x2935819a
Model has 683 quadratic objective terms
Coefficient statistics:
  Matrix range     [4e-03, 4e+01]
  Objective range  [2e-04, 6e-01]
  QObjective range [3e-02, 2e+00]
  Bounds range     [1e+01, 5e+01]
  RHS range        [8e-04, 2e+01]
Presolve removed 1388 rows and 13 columns
Presolve time: 0.01s
Presolved: 724 rows, 703 columns, 3910 nonzeros
Presolved model has 683 quadratic objective terms
Ordering time: 0.00s

Barrier statistics:
 Dense cols : 14
 AA' NZ     : 4.169e+03
 Factor NZ  : 5.416e+03 (roughly 1 MB of memory)
 Factor Ops : 6.759e+04 (less than 1 second per iteration)
 Threads    : 1

                  Objective                Residual
Iter       Primal          Dual         Primal    Dual     Compl     Time
   0   1.60248665e+08 -1.61048567e+08  2.57e+03 4.69e+02  9.80e+05     0s
   1   4.58477468e+07 -4.67316594e+07  1.37e+03 2.49e+02  5.28e+05     0s
   2   3.99131752e+05 -1.93764984e+06  1.28e+02 2.34e+01  6.75e+04     0s
   3   1.14122805e+02 -1.25309086e+06  1.94e+00 3.53e-01  1.84e+03     0s
   4   2.84037645e+01 -7.17412777e+05  4.35e-01 7.92e-02  6.50e+02     0s
   5   2.54235809e+01 -1.41838641e+05  4.57e-02 8.33e-03  1.02e+02     0s
   6   2.57937554e+01 -5.83103998e+02  7.23e-05 1.32e-05  4.20e-01     0s
   7   2.19043572e+01 -8.19802638e+01  1.17e-05 2.13e-06  7.16e-02     0s
   8   1.84567693e+01 -1.01218257e+01  2.82e-06 5.13e-07  1.97e-02     0s
   9   1.79210854e+01  2.64880985e+00  6.99e-07 1.27e-07  1.05e-02     0s
  10   1.73810027e+01  1.33819623e+01  8.13e-08 1.48e-08  2.76e-03     0s
  11   1.73285979e+01  1.55588409e+01  2.40e-08 4.36e-09  1.22e-03     0s
  12   1.72928745e+01  1.72324260e+01  6.05e-10 1.10e-10  4.17e-05     0s
  13   1.72916470e+01  1.72908596e+01  7.27e-12 1.33e-12  5.43e-07     0s
  14   1.72916314e+01  1.72916306e+01  3.02e-11 2.80e-13  5.46e-10     0s

Barrier solved model in 14 iterations and 0.02 seconds (0.01 work units)
Optimal objective 1.72916314e+01

